BEGIN IONS
PEPMASS=1147.58
CHARGE=1+
MSLEVEL=2
SOURCE_INSTRUMENT=ESI-Orbitrap
FILENAME=BMDMS_mgf.mgf
SEQ=*..*
IONMODE=Positive
ORGANISM=BMDMS-NP
NAME=Siamenoside I [M+Na]+
PI=BMDMS-NP
DATACOLLECTOR=BMDMS-NP
SMILES=OCC1OC(OCC2OC(OC(CCC(C)C3CCC4(C)C5CC=C6C(CCC(OC7OC(CO)C(O)C(O)C7O)C6(C)C)C5(C)C(O)CC34C)C(O)(C)C)C(OC8OC(CO)C(O)C(O)C8O)C(O)C2O)C(O)C(O)C1O
INCHI=InChI=1S/C54H92O24/c1-22(23-15-16-52(6)30-12-10-24-25(54(30,8)31(58)17-53(23,52)7)11-14-32(50(24,2)3)76-47-43(68)39(64)35(60)27(19-56)73-47)9-13-33(51(4,5)70)77-49-45(78-48-44(69)40(65)36(61)28(20-57)74-48)41(66)37(62)29(75-49)21-71-46-42(67)38(63)34(59)26(18-55)72-46/h10,22-23,25-49,55-70H,9,11-21H2,1-8H3
INCHIAUX=N/A
PUBMED=N/A
SUBMITUSER=mwang87
LIBRARYQUALITY=1
SPECTRUMID=CCMSLIB00006492069
SCANS=137769
1147.906006 1000.0 
END IONS

